
  32    4
  10   10   10   10

   0   0   0   0   0   6 2 7 20 29 30 31 
   2   1   0   1   1   2 18 3 
   8   0   1   4   1   1 4 
   5   5   3   5   0   2 28 5 
   5   4   6   0   4   2 16 6 
   4   6   7   2   0   3 27 26 8 
   2   3   6   0   4   1 8 
   8   4   0   5   2   2 25 9 
  10   3   2   5   0   1 10 
   5   0   4   4   6   1 11 
  10   2   0   7   6   1 12 
   2   4   0   3   3   1 13 
   7   0   2   4   2   1 14 
   5   3   3   0   4   2 24 15 
   7   0   3   2   2   1 17 
   3   3   6   3   0   1 17 
   4   2   0   3   1   1 19 
  10   3   3   0   4   1 19 
   6   6   3   2   0   1 21 
   7   6   0   4   5   1 21 
   3   5   0   7   5   1 22 
   1   0   6   4   5   1 23 
   4   0   2   7   6   1 32
   1   6   4   2   0   1 32
   3   2   0   5   3   1 32
   5   0   6   5   6   1 32
   9   0   4   5   4   1 32
   6   6   0   4  10   1 32
   3   4   1   4   0   1 32
   6   0   6   2   4   1 32
   8   6   6   5   0   1 32
   0   0   0   0   0   0 
